4 10 18 14 6 15 17 8 16 11 5 9 19 12 0 13 2 1 7 3  
4 10 18 14 6 11 0 8 15 5 17 12 9 13 16 2 1 7 3 19  
4 10 18 14 6 15 17 8 16 11 5 9 19 12 0 2 13 1 7 3  
4 10 18 14 6 11 17 8 15 7 16 0 12 9 13 5 2 3 1 19  
4 10 18 14 6 11 17 15 8 16 5 9 19 12 0 2 13 7 3 1  
4 10 18 14 6 11 0 8 15 5 17 12 9 13 16 2 1 7 3 19  
4 10 18 14 6 11 17 8 15 16 5 0 12 9 19 2 13 7 3 1  
4 10 18 14 6 11 15 17 8 12 0 16 9 19 5 2 7 3 13 1  
4 10 18 14 6 15 7 8 17 12 5 9 19 11 2 0 1 13 16 3  
4 10 18 14 6 11 17 8 15 16 5 9 19 3 12 0 2 1 7 13  
4 10 18 14 6 11 15 17 8 12 0 16 9 1 5 13 2 7 3 19  
4 10 18 14 6 11 17 8 16 15 5 0 12 9 2 13 1 7 3 19  
4 10 18 14 6 11 0 8 15 5 17 12 9 13 16 2 1 7 3 19  
4 10 18 14 6 11 17 8 15 16 5 9 19 12 0 13 7 2 3 1  
4 10 18 14 6 11 17 8 15 16 5 9 19 13 12 0 2 3 1 7  
4 10 18 14 6 11 15 17 8 12 0 16 9 1 5 2 13 7 3 19  
4 10 18 14 6 11 17 8 15 16 5 9 19 1 0 13 12 7 3 2  
4 10 18 14 6 15 17 8 16 11 5 9 19 1 0 13 12 7 2 3  
4 10 18 14 6 15 11 17 8 12 0 16 9 19 5 7 3 13 2 1  
4 10 18 14 6 11 17 8 15 7 16 0 12 9 19 5 2 3 1 13  
4 10 18 14 6 15 7 11 8 17 12 5 9 19 2 0 1 13 16 3  
4 10 18 14 6 15 7 11 8 17 12 5 9 19 2 0 1 13 16 3  
4 10 18 14 6 15 11 17 8 12 5 9 19 2 7 0 1 13 16 3  
4 10 18 14 6 11 17 8 15 16 5 9 19 12 0 13 7 2 1 3  
4 10 18 14 6 11 17 8 15 16 5 9 19 12 0 13 7 3 1 2  
4 10 18 15 6 14 7 11 8 17 12 5 9 19 2 0 1 13 16 3  
4 10 18 14 6 11 17 8 15 12 0 9 16 19 5 2 3 13 1 7  
4 10 18 14 6 11 15 17 8 12 0 16 9 19 5 2 7 3 1 13  
4 10 18 14 15 6 11 17 8 12 0 16 9 19 5 7 3 1 2 13  
4 10 18 14 6 11 15 17 8 12 0 16 9 1 5 13 2 7 3 19  
4 10 18 14 6 11 17 8 15 16 5 9 19 1 0 2 13 12 7 3  
4 10 18 14 6 11 17 8 15 16 5 9 19 3 1 0 2 13 12 7  
4 10 18 14 6 11 17 8 15 16 5 9 19 12 7 0 2 3 1 13  
4 10 18 14 6 15 11 17 8 12 5 9 19 2 7 0 1 13 16 3  
4 10 18 14 6 11 0 8 15 17 12 7 16 9 13 5 2 3 1 19  
4 10 18 14 6 11 15 17 8 16 0 12 9 1 5 2 13 7 3 19  
4 10 18 14 6 11 17 8 15 0 12 5 2 9 19 13 16 1 7 3  
4 10 18 14 6 11 7 8 17 12 15 9 19 5 2 0 1 13 16 3  
4 10 18 14 6 11 17 8 15 16 5 9 19 12 0 13 1 7 2 3  
4 10 18 14 6 11 15 17 8 12 0 16 9 19 5 2 7 3 1 13  
4 10 18 14 6 11 17 8 15 0 16 12 9 1 5 2 13 7 3 19  
4 10 18 14 6 15 17 8 11 16 5 9 19 1 0 13 12 7 2 3  
4 10 18 14 6 11 17 8 15 12 5 9 19 2 7 0 1 13 16 3  
4 10 18 14 6 11 15 17 8 12 5 9 19 2 7 1 0 13 16 3  
4 10 18 14 6 11 15 17 8 16 5 9 19 12 0 2 7 3 1 13  
4 10 18 14 6 11 17 8 15 5 9 19 2 12 0 13 16 1 7 3  
